
Welcome to IBM(R) ILOG(R) CPLEX(R) Interactive Optimizer 22.1.1.0
  with Simplex, Mixed Integer & Barrier Optimizers
5725-A06 5725-A29 5724-Y48 5724-Y49 5724-Y54 5724-Y55 5655-Y21
Copyright IBM Corp. 1988, 2022.  All Rights Reserved.

Type 'help' for a list of available commands.
Type 'help' followed by a command name for more
information on commands.

CPLEX> Selected objective sense:  MINIMIZE
Selected objective  name:  00000000
Selected RHS        name:  RHS1
Selected bound      name:  BOUND
Problem 'ee.mps' read.
Read time = 0.03 sec. (3.17 ticks)
CPLEX> New value for time limit in seconds: 7200
CPLEX> New value for parallel optimization mode: -1
CPLEX> New value for default parallel thread count: 40
CPLEX> New value for mixed integer optimality gap tolerance: 1e-13
CPLEX> Version identifier: 22.1.1.0 | 2022-11-28 | 9160aff4d
CPXPARAM_Threads                                 40
CPXPARAM_Parallel                                -1
CPXPARAM_TimeLimit                               7200
CPXPARAM_MIP_Tolerances_MIPGap                   1e-13
Found incumbent of value 0.000000 after 0.00 sec. (0.31 ticks)
Tried aggregator 2 times.
MIP Presolve eliminated 274 rows and 3331 columns.
MIP Presolve modified 6105 coefficients.
Aggregator did 873 substitutions.
Reduced MIP has 3382 rows, 7061 columns, and 26173 nonzeros.
Reduced MIP has 7061 binaries, 0 generals, 0 SOSs, and 0 indicators.
Presolve time = 0.07 sec. (70.37 ticks)
Probing fixed 24 vars, tightened 0 bounds.
Probing time = 0.06 sec. (28.74 ticks)
Tried aggregator 2 times.
Detecting symmetries...
MIP Presolve eliminated 28 rows and 46 columns.
Aggregator did 2 substitutions.
Reduced MIP has 3352 rows, 7007 columns, and 25999 nonzeros.
Reduced MIP has 7007 binaries, 0 generals, 0 SOSs, and 0 indicators.
Presolve time = 0.04 sec. (46.93 ticks)
Probing time = 0.02 sec. (5.07 ticks)
Clique table members: 16815.
MIP emphasis: balance optimality and feasibility.
MIP search method: dynamic search.
Parallel mode: opportunistic, using up to 40 threads.
Root relaxation solution time = 0.08 sec. (73.95 ticks)

        Nodes                                         Cuts/
   Node  Left     Objective  IInf  Best Integer    Best Bound    ItCnt     Gap

*     0+    0                            0.0000  -1.54000e+13              --- 
*     0+    0                      -5.79000e+12  -1.54000e+13           165.98%
*     0+    0                      -6.99000e+12  -1.54000e+13           120.31%
*     0+    0                      -7.20000e+12  -1.54000e+13           113.89%
      0     0  -1.53900e+13    37  -7.20000e+12  -1.53900e+13     1930  113.75%
*     0+    0                      -1.53900e+13  -1.53900e+13             0.00%
*     0+    0                      -1.53900e+13  -1.53900e+13             0.00%
      0     0  -1.53900e+13   115  -1.53900e+13      Cuts: 43     2698    0.00%
      0     0  -1.53900e+13   134  -1.53900e+13      Cuts: 27     2919    0.00%
*     0+    0                      -1.53900e+13  -1.53900e+13             0.00%

Repeating presolve.
Tried aggregator 2 times.
MIP Presolve eliminated 1936 rows and 3875 columns.
MIP Presolve modified 1105 coefficients.
Aggregator did 446 substitutions.
Reduced MIP has 970 rows, 2640 columns, and 8987 nonzeros.
Reduced MIP has 2640 binaries, 0 generals, 0 SOSs, and 0 indicators.
Presolve time = 0.03 sec. (35.88 ticks)
Probing time = 0.00 sec. (3.74 ticks)
Cover probing fixed 1 vars, tightened 0 bounds.
Tried aggregator 1 time.
Detecting symmetries...
MIP Presolve eliminated 1 rows and 1 columns.
Reduced MIP has 969 rows, 2639 columns, and 8982 nonzeros.
Reduced MIP has 2639 binaries, 0 generals, 0 SOSs, and 0 indicators.
Presolve time = 0.01 sec. (6.08 ticks)
Represolve time = 0.05 sec. (55.95 ticks)
Probing time = 0.00 sec. (3.70 ticks)
Clique table members: 6203.
MIP emphasis: balance optimality and feasibility.
MIP search method: dynamic search.
Parallel mode: opportunistic, using up to 40 threads.
Root relaxation solution time = 0.06 sec. (48.22 ticks)

        Nodes                                         Cuts/
   Node  Left     Objective  IInf  Best Integer    Best Bound    ItCnt     Gap

*     0+    0                      -1.53900e+13  -1.53900e+13             0.00%
      0     0  -1.53900e+13    80  -1.53900e+13  -1.53900e+13     4312    0.00%
      0     0  -1.53900e+13   102  -1.53900e+13      Cuts: 80     4521    0.00%
      0     0  -1.53900e+13   119  -1.53900e+13      Cuts: 39     4804    0.00%
*     0+    0                      -1.53900e+13  -1.53900e+13             0.00%
      0     2  -1.53900e+13   112  -1.53900e+13  -1.53900e+13     4804    0.00%
Elapsed time = 1.51 sec. (1091.10 ticks, tree = 0.02 MB, solutions = 8)
   1346    28        cutoff        -1.53900e+13  -1.53900e+13    56566    0.00%

GUB cover cuts applied:  2
Clique cuts applied:  21
Cover cuts applied:  572
Flow cuts applied:  7
Mixed integer rounding cuts applied:  6
Zero-half cuts applied:  9
Lift and project cuts applied:  9
Gomory fractional cuts applied:  16

Root node processing (before b&c):
  Real time             =    1.25 sec. (1090.87 ticks)
Parallel b&c, 40 threads:
  Real time             =    1.38 sec. (451.95 ticks)
  Sync time (average)   =    0.76 sec.
  Wait time (average)   =    0.00 sec.
                          ------------
Total (root+branch&cut) =    2.63 sec. (1542.82 ticks)

Solution pool: 8 solutions saved.

MIP - Integer optimal solution:  Objective = -1.5389999989e+13
Solution time =    2.68 sec.  Iterations = 110785  Nodes = 2011
Deterministic time = 1542.86 ticks  (575.56 ticks/sec)

CPLEX> Solution 'p9' written to file 'ee.sol'.
CPLEX> 